
  32    1
  10

   0   0   3 2 4 6 
   6   7   3 8 5 3 
   5   7   3 11 10 7 
   5  10   3 11 8 7 
   2  10   2 10 9 
   5  10   5 21 15 14 12 11 
  10   9   2 18 9 
   5   9   4 21 15 14 12 
  10   7   4 21 15 14 13 
   3  10   3 21 17 12 
   5   5   4 18 17 16 13 
   5   7   4 22 20 18 16 
   9  10   3 22 20 19 
   5   5   2 17 16 
  10  10   2 19 17 
   2   8   2 23 19 
   5   7   4 28 27 26 23 
   4  10   1 19 
   6   7   5 28 27 26 25 24 
   4   7   3 27 26 23 
   3   6   3 27 26 23 
   2   4   4 31 30 28 25 
   1   9   2 25 24 
   5   8   3 31 30 29 
   2   8   1 29 
   3  10   1 30 
   1   9   1 29 
   9   9   1 29 
  10   8   1 32
   3   4   1 32
   2  10   1 32
   0   0   0 
